100 8
638 769
352 162
189 937
661 268
670 883
520 558
747 563
839 490
266 754
464 177
879 695
758 454
588 608
540 362
826 126
483 449
733 383
748 621
594 708
877 124
747 696
812 530
432 436
756 890
563 287
305 757
367 544
781 795
577 431
356 823
785 762
673 648
751 588
887 688
223 357
877 340
461 439
644 215
868 105
827 791
831 403
787 402
455 629
688 331
381 448
223 331
464 351
923 235
863 677
720 624
291 501
369 549
236 893
282 345
300 351
858 165
471 50
297 442
838 94
704 170
919 558
525 777
200 812
454 190
647 665
428 494
616 553
825 784
708 384
213 335
408 559
128 325
497 685
493 460
313 348
660 559
541 557
638 545
645 319
595 649
575 174
226 871
845 222
245 452
920 189
757 396
684 257
768 344
482 416
336 810
312 327
489 573
693 791
335 131
830 478
805 99
698 776
830 521
438 349
674 477
